CPXPARAM_Read_DataCheck                          1
Found incumbent of value 0.000000 after 0.00 sec. (0.03 ticks)
Tried aggregator 1 time.
MIP Presolve modified 1 coefficients.
Reduced MIP has 133 rows, 1010 columns, and 5034 nonzeros.
Reduced MIP has 1010 binaries, 0 generals, 0 SOSs, and 0 indicators.
Presolve time = 0.00 sec. (2.07 ticks)
Probing time = 0.00 sec. (2.51 ticks)
Tried aggregator 1 time.
Reduced MIP has 133 rows, 1010 columns, and 5034 nonzeros.
Reduced MIP has 1010 binaries, 0 generals, 0 SOSs, and 0 indicators.
Presolve time = 0.00 sec. (2.44 ticks)
Probing time = 0.00 sec. (2.47 ticks)
Clique table members: 3361.
MIP emphasis: balance optimality and feasibility.
MIP search method: dynamic search.
Parallel mode: deterministic, using up to 4 threads.
Root relaxation solution time = 0.00 sec. (3.63 ticks)

        Nodes                                         Cuts/
   Node  Left     Objective  IInf  Best Integer    Best Bound    ItCnt     Gap

*     0+    0                            0.0000     6286.0000              --- 
*     0+    0                          610.0000     6286.0000           930.49%
      0     0     1658.5900    10      610.0000     1658.5900      227  171.90%
      0     0     1341.3896   122      610.0000     Cuts: 144      540  119.90%
      0     0     1164.9183   209      610.0000     Cuts: 139      837   90.97%
*     0+    0                         1011.0000     1164.9183            15.22%
      0     0     1114.1666   255     1011.0000     Cuts: 139     1065   10.20%
      0     0     1098.2350   276     1011.0000     Cuts: 133     1238    8.63%
      0     0     1085.8866   307     1011.0000      Cuts: 81     1353    7.41%
      0     0     1079.7785   307     1011.0000      Cuts: 48     1421    6.80%
      0     0     1075.4198   309     1011.0000      Cuts: 45     1507    6.37%
*     0+    0                         1035.0000     1075.4198             3.91%
      0     0        cutoff           1035.0000     1035.0000     1613    0.00%
Elapsed time = 0.38 sec. (232.53 ticks, tree = 0.01 MB, solutions = 4)

Clique cuts applied:  257
Cover cuts applied:  19
Implied bound cuts applied:  35
Flow cuts applied:  1
Mixed integer rounding cuts applied:  28
Zero-half cuts applied:  20

Root node processing (before b&c):
  Real time             =    0.38 sec. (232.63 ticks)
Parallel b&c, 4 threads:
  Real time             =    0.00 sec. (0.00 ticks)
  Sync time (average)   =    0.00 sec.
  Wait time (average)   =    0.00 sec.
                          ------------
Total (root+branch&cut) =    0.38 sec. (232.63 ticks)
